35 1000
11 165
8 144
7 156
4 101
10 101
7 18
4 181
8 149
7 108
4 181
11 157
6 176
7 144
4 133
4 118
4 156
2 198
3 149
4 149
10 149
7 165
6 157
2 143
6 156
7 108
5 116
6 156
5 116
7 198
10 118
4 176
6 181
11 143
6 181
10 133
